db/data/26748169041486430614136201049477714620.z3.out
sat
-------------------
1317.485714008
